SAT/6539906_18.param
$ LBS instance with n = 18, seed = 6539906
letting cards be [48,16,29,33,46,38,13,24,2,7,44,37,50,22,51,35,20,17]
